(declare-fun var0 () String)
(assert (RegexIn var0 (RegexConcat (RegexUnion (RegexStar (Str2Reg "s")) (RegexPlus (Str2Reg "tt"))) (RegexConcat (RegexPlus (RegexUnion (Str2Reg "qqq") (Str2Reg "rrr"))) (RegexConcat (RegexStar (RegexStar (Str2Reg "p"))) (RegexConcat (RegexUnion (RegexUnion (Str2Reg "ll") (Str2Reg "mmm")) (RegexUnion (Str2Reg "nn") (Str2Reg "ooo"))) (RegexConcat (RegexStar (RegexPlus (Str2Reg "kk"))) (RegexConcat (RegexStar (RegexPlus (Str2Reg "jj"))) (RegexConcat (RegexUnion (RegexPlus (Str2Reg "hh")) (RegexStar (Str2Reg "i"))) (RegexConcat (RegexPlus (RegexStar (Str2Reg "ggg"))) (RegexConcat (RegexPlus (RegexStar (Str2Reg "fff"))) (RegexConcat (RegexStar (RegexPlus (Str2Reg "ee"))) (RegexConcat (RegexUnion (RegexPlus (Str2Reg "b")) (RegexUnion (Str2Reg "cc") (Str2Reg "ddd"))) (RegexConcat (RegexUnion (RegexUnion (Str2Reg "7") (Str2Reg "888")) (RegexUnion (Str2Reg "999") (Str2Reg "a"))) (RegexConcat (RegexUnion (RegexStar (Str2Reg "555")) (RegexPlus (Str2Reg "66"))) (RegexConcat (RegexUnion (RegexUnion (Str2Reg "2") (Str2Reg "3")) (RegexPlus (Str2Reg "4"))) (RegexConcat (RegexPlus (RegexPlus (Str2Reg "11"))) (RegexPlus (RegexPlus (Str2Reg "00"))))))))))))))))))))
(assert (not (RegexIn var0 (RegexConcat (RegexPlus (RegexUnion (Str2Reg "ooo") (Str2Reg "pp"))) (RegexConcat (RegexUnion (RegexPlus (Str2Reg "l")) (RegexUnion (Str2Reg "mmm") (Str2Reg "nnn"))) (RegexConcat (RegexStar (RegexUnion (Str2Reg "jjj") (Str2Reg "kkk"))) (RegexConcat (RegexPlus (RegexStar (Str2Reg "ii"))) (RegexConcat (RegexStar (RegexUnion (Str2Reg "ggg") (Str2Reg "hh"))) (RegexConcat (RegexPlus (RegexPlus (Str2Reg "f"))) (RegexConcat (RegexPlus (RegexPlus (Str2Reg "eee"))) (RegexConcat (RegexStar (RegexPlus (Str2Reg "dd"))) (RegexConcat (RegexStar (RegexUnion (Str2Reg "bbb") (Str2Reg "cc"))) (RegexConcat (RegexUnion (RegexUnion (Str2Reg "88") (Str2Reg "9")) (RegexPlus (Str2Reg "a"))) (RegexConcat (RegexStar (RegexUnion (Str2Reg "66") (Str2Reg "77"))) (RegexConcat (RegexPlus (RegexStar (Str2Reg "5"))) (RegexConcat (RegexUnion (RegexPlus (Str2Reg "3")) (RegexStar (Str2Reg "44"))) (RegexConcat (RegexPlus (RegexStar (Str2Reg "22"))) (RegexConcat (RegexPlus (RegexPlus (Str2Reg "1"))) (RegexStar (RegexPlus (Str2Reg "000")))))))))))))))))))))
(check-sat)